95
8
0 8 11 12 14 15 17 18 19 20 21 22 24 32 34 35 36 38 39 43 45 50 51 52 54 55 58 59 61 62 63 64 65 66 68 69 70 72 73 76 77 80 82 84 85 86 87 88 89 94
1 8 10 12 13 18 20 21 22 24 27 28 29 32 34 36 41 42 45 48 50 51 52 54 55 57 58 60 61 63 66 68 70 72 73 76 77 78 80 82 83 85 88 93 94
2 9 10 11 12 13 15 16 18 19 24 27 29 33 36 37 39 43 45 46 47 50 52 57 58 59 60 61 62 63 65 66 67 70 71 72 73 74 76 78 79 80 81 82 83 84 86 93 94
3 8 9 10 13 15 16 17 19 24 25 26 27 29 33 36 39 43 46 48 49 50 53 54 55 56 58 65 69 70 74 76 77 78 81 82 87 90 91 92 93 94
4 11 20 22 23 24 29 30 37 38 46 47 50 53 54 55 58 59 61 64 66 67 70 72 73 75 77 79 83 84 87 88 92 93 94
5 12 15 18 19 26 29 30 31 40 42 43 46 47 50 51 52 55 59 60 62 66 74 77 78 81 84 86 88 91
6 8 12 17 21 25 32 33 38 41 45 46 49 55 71 80 84 86 90 92 94
7 28 30 44 45 67 69 76 82 87
